; PUSH cw_3 DUP1 SWAP2 POP PUSH cw_3 SWAP1 => POP PUSH cw_3 DUP1 PUSH cw_3
(set-option :produce-proofs true)
; 
(set-info :status unknown)
(declare-fun storage_t ((_ BitVec 256) (_ BitVec 256) Int (_ BitVec 256)) (_ BitVec 256))
(declare-fun w_3 () (_ BitVec 256))
(declare-fun storage_s ((_ BitVec 256) (_ BitVec 256) Int (_ BitVec 256)) (_ BitVec 256))
(declare-fun exc_halt_t (Int) Bool)
(declare-fun exc_halt_s (Int) Bool)
(declare-fun stack_t ((_ BitVec 256) (_ BitVec 256) Int (_ BitVec 6)) (_ BitVec 256))
(declare-fun stack_s ((_ BitVec 256) (_ BitVec 256) Int (_ BitVec 6)) (_ BitVec 256))
(declare-fun sc_t (Int) (_ BitVec 6))
(declare-fun sc_s (Int) (_ BitVec 6))
(declare-fun used_gas_t ((_ BitVec 256) (_ BitVec 256) Int) Int)
(declare-fun used_gas_s ((_ BitVec 256) (_ BitVec 256) Int) Int)
(assert
 (exists ((x_0 (_ BitVec 256)) )(let (($x771 (forall ((w (_ BitVec 256)) )(let ((?x4443 (storage_t x_0 w_3 4 w)))
 (let ((?x6067 (storage_s x_0 w_3 6 w)))
 (= ?x6067 ?x4443))))
 ))
 (let (($x7854 (exc_halt_t 4)))
 (let (($x7121 (exc_halt_s 6)))
 (let (($x8981 (= $x7121 $x7854)))
 (let (($x1785 (forall ((n (_ BitVec 6)) )(let ((?x2016 (stack_t x_0 w_3 4 n)))
 (let ((?x1629 (stack_s x_0 w_3 6 n)))
 (let (($x7233 (= ?x1629 ?x2016)))
 (or (bvsle (sc_t 4) n) $x7233)))))
 ))
 (let ((?x7495 (sc_t 4)))
 (let ((?x9114 (sc_s 6)))
 (let (($x8373 (= ?x9114 ?x7495)))
 (let ((?x10578 (used_gas_t x_0 w_3 0)))
 (let ((?x3167 (used_gas_s x_0 w_3 0)))
 (let (($x6688 (= ?x3167 ?x10578)))
 (let (($x9838 (forall ((w (_ BitVec 256)) )(let ((?x4677 (storage_t x_0 w_3 0 w)))
 (let ((?x3691 (storage_s x_0 w_3 0 w)))
 (= ?x3691 ?x4677))))
 ))
 (let (($x56 (exc_halt_t 0)))
 (let (($x57 (exc_halt_s 0)))
 (let (($x58 (= $x57 $x56)))
 (let (($x8312 (forall ((n (_ BitVec 6)) )(let ((?x63 (sc_t 0)))
 (let (($x7941 (bvsle ?x63 n)))
 (let ((?x10966 (stack_t x_0 w_3 0 n)))
 (let ((?x9773 (stack_s x_0 w_3 0 n)))
 (let (($x4865 (= ?x9773 ?x10966)))
 (or $x4865 $x7941)))))))
 ))
 (let ((?x63 (sc_t 0)))
 (let ((?x72 (sc_s 0)))
 (let (($x73 (= ?x72 ?x63)))
 (let (($x9009 (not (= ((_ extract 6 6) (bvadd (_ bv1 7) (concat (_ bv0 1) (sc_t 3)))) (_ bv0 1)))))
 (let (($x11636 (exc_halt_t 3)))
 (let (($x7593 (forall ((w (_ BitVec 256)) )(let ((?x7918 (storage_t x_0 w_3 3 w)))
 (let ((?x4443 (storage_t x_0 w_3 4 w)))
 (= ?x4443 ?x7918))))
 ))
 (let (($x10977 (forall ((n (_ BitVec 6)) )(or (= (stack_t x_0 w_3 4 n) (stack_t x_0 w_3 3 n)) (bvsle (sc_t 3) n)))
 ))
 (let (($x5997 (= ?x7495 (bvadd (_ bv1 6) (sc_t 3)))))
 (let (($x8777 (= (used_gas_t x_0 w_3 4) (+ 3 (used_gas_t x_0 w_3 3)))))
 (let (($x8371 (exc_halt_t 2)))
 (let (($x258 (not (= ((_ extract 6 6) (bvadd (_ bv1 7) (concat (_ bv0 1) (sc_t 2)))) (_ bv0 1)))))
 (let (($x600 (forall ((w (_ BitVec 256)) )(let ((?x10637 (storage_t x_0 w_3 2 w)))
 (let ((?x7918 (storage_t x_0 w_3 3 w)))
 (= ?x7918 ?x10637))))
 ))
 (let (($x50 (forall ((n (_ BitVec 6)) )(or (= (stack_t x_0 w_3 3 n) (stack_t x_0 w_3 2 n)) (bvsle (bvadd (_ bv63 6) (sc_t 2)) n)))
 ))
 (let ((?x9921 (sc_t 3)))
 (let (($x9387 (= ?x9921 (bvadd (_ bv1 6) (sc_t 2)))))
 (let ((?x7021 (used_gas_t x_0 w_3 3)))
 (let ((?x11248 (sc_t 2)))
 (let ((?x8411 (bvadd (_ bv63 6) ?x11248)))
 (let ((?x7325 (stack_t x_0 w_3 2 ?x8411)))
 (let (($x10074 (not (= ((_ extract 6 6) (bvadd (_ bv1 7) (concat (_ bv0 1) (sc_t 1)))) (_ bv0 1)))))
 (let (($x4852 (exc_halt_t 1)))
 (let (($x10732 (forall ((w (_ BitVec 256)) )(let ((?x10616 (storage_t x_0 w_3 1 w)))
 (let ((?x10637 (storage_t x_0 w_3 2 w)))
 (= ?x10637 ?x10616))))
 ))
 (let (($x9731 (forall ((n (_ BitVec 6)) )(or (= (stack_t x_0 w_3 2 n) (stack_t x_0 w_3 1 n)) (bvsle (sc_t 1) n)))
 ))
 (let (($x8609 (= ?x11248 (bvadd (_ bv1 6) (sc_t 1)))))
 (let ((?x312 (used_gas_t x_0 w_3 2)))
 (let (($x10358 (forall ((w (_ BitVec 256)) )(let ((?x4677 (storage_t x_0 w_3 0 w)))
 (let ((?x10616 (storage_t x_0 w_3 1 w)))
 (= ?x10616 ?x4677))))
 ))
 (let (($x8623 (forall ((n (_ BitVec 6)) )(or (= (stack_t x_0 w_3 1 n) (stack_t x_0 w_3 0 n)) (bvsle (bvadd (_ bv63 6) (sc_t 0)) n)))
 ))
 (let (($x9460 (= $x7121 (or (exc_halt_s 5) (not (bvsle (_ bv0 6) (bvadd (_ bv62 6) (sc_s 5))))))))
 (let (($x7965 (forall ((w (_ BitVec 256)) )(let ((?x5768 (storage_s x_0 w_3 5 w)))
 (let ((?x6067 (storage_s x_0 w_3 6 w)))
 (= ?x6067 ?x5768))))
 ))
 (let (($x7845 (forall ((n (_ BitVec 6)) )(or (bvsle (bvadd (_ bv62 6) (sc_s 5)) n) (= (stack_s x_0 w_3 6 n) (stack_s x_0 w_3 5 n))))
 ))
 (let ((?x4319 (sc_s 5)))
 (let (($x9477 (= ?x9114 ?x4319)))
 (let (($x1716 (= (used_gas_s x_0 w_3 6) (+ 3 (used_gas_s x_0 w_3 5)))))
 (let (($x536 (= (stack_s x_0 w_3 6 (bvadd (_ bv62 6) ?x9114)) (stack_s x_0 w_3 5 (bvadd (_ bv63 6) ?x4319)))))
 (let (($x2406 (= (stack_s x_0 w_3 6 (bvadd (_ bv63 6) ?x9114)) (stack_s x_0 w_3 5 (bvadd (_ bv62 6) ?x4319)))))
 (let (($x11288 (not (= ((_ extract 6 6) (bvadd (_ bv1 7) (concat (_ bv0 1) (sc_s 4)))) (_ bv0 1)))))
 (let (($x9175 (exc_halt_s 4)))
 (let (($x1862 (exc_halt_s 5)))
 (let (($x6698 (forall ((w (_ BitVec 256)) )(let ((?x11898 (storage_s x_0 w_3 4 w)))
 (let ((?x5768 (storage_s x_0 w_3 5 w)))
 (= ?x5768 ?x11898))))
 ))
 (let (($x5253 (forall ((n (_ BitVec 6)) )(or (= (stack_s x_0 w_3 5 n) (stack_s x_0 w_3 4 n)) (bvsle (sc_s 4) n)))
 ))
 (let (($x10338 (= ?x4319 (bvadd (_ bv1 6) (sc_s 4)))))
 (let ((?x4560 (used_gas_s x_0 w_3 5)))
 (let (($x5909 (= $x9175 (or (exc_halt_s 3) (not (bvsle (_ bv0 6) (bvadd (_ bv63 6) (sc_s 3))))))))
 (let (($x6033 (forall ((w (_ BitVec 256)) )(let ((?x10508 (storage_s x_0 w_3 3 w)))
 (let ((?x11898 (storage_s x_0 w_3 4 w)))
 (= ?x11898 ?x10508))))
 ))
 (let (($x10091 (forall ((n (_ BitVec 6)) )(let ((?x3851 (sc_s 3)))
 (let ((?x10883 (bvadd (_ bv63 6) ?x3851)))
 (let (($x11483 (bvsle ?x10883 n)))
 (or (= (stack_s x_0 w_3 4 n) (stack_s x_0 w_3 3 n)) $x11483)))))
 ))
 (let ((?x10848 (used_gas_s x_0 w_3 4)))
 (let (($x8103 (exc_halt_s 3)))
 (let (($x4635 (= $x8103 (or (exc_halt_s 2) (not (bvsle (_ bv0 6) (bvadd (_ bv61 6) (sc_s 2))))))))
 (let (($x10332 (forall ((w (_ BitVec 256)) )(let ((?x9516 (storage_s x_0 w_3 2 w)))
 (let ((?x10508 (storage_s x_0 w_3 3 w)))
 (= ?x10508 ?x9516))))
 ))
 (let (($x8285 (forall ((n (_ BitVec 6)) )(or (= (stack_s x_0 w_3 3 n) (stack_s x_0 w_3 2 n)) (bvsle (bvadd (_ bv61 6) (sc_s 2)) n)))
 ))
 (let ((?x8357 (used_gas_s x_0 w_3 3)))
 (let (($x5300 (= (stack_s x_0 w_3 3 (bvadd (_ bv62 6) (sc_s 3))) (stack_s x_0 w_3 2 (bvadd (_ bv62 6) (sc_s 2))))))
 (let ((?x2272 (sc_s 2)))
 (let ((?x11206 (bvadd (_ bv63 6) ?x2272)))
 (let ((?x4425 (stack_s x_0 w_3 2 ?x11206)))
 (let (($x6355 (= (stack_s x_0 w_3 3 (bvadd (_ bv63 6) (sc_s 3))) (stack_s x_0 w_3 2 (bvadd (_ bv61 6) ?x2272)))))
 (let (($x11821 (not (bvsle (_ bv0 6) (bvadd (_ bv63 6) (sc_s 1))))))
 (let (($x8780 (exc_halt_s 1)))
 (let (($x4531 (not (= ((_ extract 6 6) (bvadd (_ bv1 7) (concat (_ bv0 1) (sc_s 1)))) (_ bv0 1)))))
 (let (($x10052 (exc_halt_s 2)))
 (let (($x1201 (forall ((w (_ BitVec 256)) )(let ((?x10950 (storage_s x_0 w_3 1 w)))
 (let ((?x9516 (storage_s x_0 w_3 2 w)))
 (= ?x9516 ?x10950))))
 ))
 (let (($x450 (forall ((n (_ BitVec 6)) )(let ((?x154 (sc_s 1)))
 (let ((?x6093 (bvadd (_ bv63 6) ?x154)))
 (let (($x237 (bvsle ?x6093 n)))
 (or $x237 (= (stack_s x_0 w_3 2 n) (stack_s x_0 w_3 1 n)))))))
 ))
 (let (($x9997 (= ?x2272 (bvadd (_ bv1 6) (sc_s 1)))))
 (let ((?x9045 (used_gas_s x_0 w_3 2)))
 (let ((?x154 (sc_s 1)))
 (let ((?x6093 (bvadd (_ bv63 6) ?x154)))
 (let ((?x5708 (stack_s x_0 w_3 1 ?x6093)))
 (let (($x2944 (= $x8780 (or $x57 (not (= ((_ extract 6 6) (bvadd (_ bv1 7) (concat (_ bv0 1) ?x72))) (_ bv0 1)))))))
 (let (($x7299 (forall ((w (_ BitVec 256)) )(let ((?x3691 (storage_s x_0 w_3 0 w)))
 (let ((?x10950 (storage_s x_0 w_3 1 w)))
 (= ?x10950 ?x3691))))
 ))
 (let (($x5105 (forall ((n (_ BitVec 6)) )(let ((?x72 (sc_s 0)))
 (let (($x6521 (bvsle ?x72 n)))
 (or (= (stack_s x_0 w_3 1 n) (stack_s x_0 w_3 0 n)) $x6521))))
 ))
 (let (($x4458 (= ?x154 (bvadd (_ bv1 6) ?x72))))
 (let (($x11639 (forall ((w (_ BitVec 256)) )(let ((?x3691 (storage_s x_0 w_3 0 w)))
 (= ?x3691 (_ bv0 256))))
 ))
 (let (($x1452 (= ?x3167 0)))
 (let (($x4649 (not $x57)))
 (let (($x11509 (= (stack_s x_0 w_3 0 (_ bv0 6)) x_0)))
 (let (($x7461 (= ?x72 (_ bv1 6))))
 (and $x7461 $x11509 $x4649 $x1452 $x11639 (= (stack_s x_0 w_3 1 ?x72) w_3) (= (used_gas_s x_0 w_3 1) (+ 3 ?x3167)) $x4458 $x5105 $x7299 $x2944 (= ?x4425 ?x5708) (= (stack_s x_0 w_3 2 ?x6093) ?x5708) (= ?x9045 (+ 3 (used_gas_s x_0 w_3 1))) $x9997 $x450 $x1201 (= $x10052 (or $x4531 $x8780 $x11821)) $x6355 (= (stack_s x_0 w_3 3 (bvadd (_ bv61 6) (sc_s 3))) ?x4425) $x5300 (= ?x8357 (+ 3 ?x9045)) (= (sc_s 3) ?x2272) $x8285 $x10332 $x4635 (= ?x10848 (+ 2 ?x8357)) (= (sc_s 4) (bvadd (_ bv63 6) (sc_s 3))) $x10091 $x6033 $x5909 (= (stack_s x_0 w_3 5 (sc_s 4)) w_3) (= ?x4560 (+ 3 ?x10848)) $x10338 $x5253 $x6698 (= $x1862 (or $x9175 $x11288)) $x2406 $x536 $x1716 $x9477 $x7845 $x7965 $x9460 (= (used_gas_t x_0 w_3 1) (+ 2 ?x10578)) (= (sc_t 1) (bvadd (_ bv63 6) ?x63)) $x8623 $x10358 (= $x4852 (or $x56 (not (bvsle (_ bv0 6) (bvadd (_ bv63 6) ?x63))))) (= (stack_t x_0 w_3 2 (sc_t 1)) w_3) (= ?x312 (+ 3 (used_gas_t x_0 w_3 1))) $x8609 $x9731 $x10732 (= $x8371 (or $x4852 $x10074)) (= (stack_t x_0 w_3 3 (bvadd (_ bv63 6) ?x9921)) ?x7325) (= (stack_t x_0 w_3 3 ?x8411) ?x7325) (= ?x7021 (+ 3 ?x312)) $x9387 $x50 $x600 (= $x11636 (or $x258 (not (bvsle (_ bv0 6) ?x8411)) $x8371)) (= (stack_t x_0 w_3 4 ?x9921) w_3) $x8777 $x5997 $x10977 $x7593 (= $x7854 (or $x11636 $x9009)) $x73 $x8312 $x58 $x9838 $x6688 (not (and $x8373 $x1785 $x8981 $x771))))))))))))))))))))))))))))))))))))))))))))))))))))))))))))))))))))))))))))))))))))))))))))))))
 )
(check-sat)
(get-proof)
